c read Graph
c width = 239
c time = 844 ms
c width = 10
c time = 984 ms
c width = 9
c time = 1935 ms
c width = 9
c time = 299867 ms
s td 810 10 894
b 1 367 405
b 2 400 406
b 3 220 406 407
b 4 111 622
b 5 125 596
b 6 97 413 624 625
b 7 326 338 605 606
b 8 23 413 414 416
b 9 133 418 419 420
b 10 397 420 421 422
b 11 218 422 423 425
b 12 392 427 428 429
b 13 274 430 431 434
b 14 45 434 435 436
b 15 6 437 438 439
b 16 402 439 440 444
b 17 58 445 446 452
b 18 216 452 453 454
b 19 265 454 455 456
b 20 225 456 457 458
b 21 328 458 459 462
b 22 390 462 463 464
b 23 112 464 465 467
b 24 293 470 471 477
b 25 88 477 478 480
b 26 380 480 481 485
b 27 67 486 487 488
b 28 369 489 490 491
b 29 1 491 492 493
b 30 165 493 494 496
b 31 268 496 497 499
b 32 370 499 500 502
b 33 248 503 504 508
b 34 297 510 511 513
b 35 202 513 514 515
b 36 230 515 516 517
b 37 279 518 519 521
b 38 212 522 523 528
b 39 319 529 530 536
b 40 148 536 537 538
b 41 359 541 542 543
b 42 368 543 544 549
b 43 116 552 553 555
b 44 163 556 557 558
b 45 25 560 561 563
b 46 344 563 564 565
b 47 176 565 566 568
b 48 358 568 569 571
b 49 371 571 572 574
b 50 278 574 575 580
b 51 189 580 581 585
b 52 264 585 586 878
b 53 162 597 598 624
b 54 162 598 599 624
b 55 319 599 600 601
b 56 392 601 602 603
b 57 164 603 604 605
b 58 338 605 606 607
b 59 175 608 609 610
b 60 266 610 611 612
b 61 166 613 614 615
b 62 67 615 616 617
b 63 163 617 618 619
b 64 402 619 620 621
b 65 413 624 625 640
b 66 23 640 641 643
b 67 75 643 644 650
b 68 83 650 651 652
b 69 133 652 653 655
b 70 397 655 656 666
b 71 218 666 667 668
b 72 33 668 669 671
b 73 320 671 672 673
b 74 392 673 674 675
b 75 27 675 676 678
b 76 274 678 679 685
b 77 45 685 686 689
b 78 38 689 690 691
b 79 6 691 692 694
b 80 402 694 695 700
b 81 304 700 701 702
b 82 58 702 703 710
b 83 216 710 711 715
b 84 265 715 716 718
b 85 266 718 719 720
b 86 225 720 721 723
b 87 328 723 724 727
b 88 46 727 728 729
b 89 390 729 730 732
b 90 112 732 733 734
b 91 289 734 735 739
b 92 195 740 741 747
b 93 293 747 748 749
b 94 175 750 751 758
b 95 380 758 759 762
b 96 270 762 763 765
b 97 67 765 766 771
b 98 74 771 772 773
b 99 1 774 775 776
b 100 165 776 777 778
b 101 268 778 779 782
b 102 370 782 783 784
b 103 243 784 785 786
b 104 248 786 787 790
b 105 139 792 793 794
b 106 202 794 795 796
b 107 230 796 797 801
b 108 279 802 803 804
b 109 223 805 806 810
b 110 271 810 811 814
b 111 319 814 815 817
b 112 148 817 818 819
b 113 239 819 820 822
b 114 126 823 824 825
b 115 368 826 827 829
b 116 116 832 833 834
b 117 352 834 835 836
b 118 163 836 837 839
b 119 162 840 841 845
b 120 25 845 846 850
b 121 344 850 851 857
b 122 176 857 858 861
b 123 358 861 862 867
b 124 278 868 869 873
b 125 189 873 874 876
b 126 23 413 416 640 643
b 127 413 416 624 640 643
b 128 416 417 624 643 650
b 129 75 416 417 643 650
b 130 417 418 624 650 652
b 131 83 417 418 650 652
b 132 418 420 624 652 655
b 133 133 418 420 652 655
b 134 420 422 624 655 666
b 135 397 420 422 655 666
b 136 422 425 624 666 668
b 137 218 422 425 666 668
b 138 425 426 624 668 671
b 139 33 425 426 668 671
b 140 426 427 624 671 673
b 141 320 426 427 671 673
b 142 392 427 429 624 673
b 143 392 429 624 673 675
b 144 392 429 430 624 675 678
b 145 392 430 434 624 678 685
b 146 392 434 436 624 685 689
b 147 392 436 437 624 689 691
b 148 38 436 437 689 691
b 149 392 437 439 624 691 694
b 150 392 439 601 603 624 694
b 151 162 319 439 601 603 624 694
b 152 162 319 599 601 624
b 153 162 319 439 558 603 608 694 839
b 154 162 558 560 603 608 839 845
b 155 560 585 603 608 845 876
b 156 560 580 585 845 873 876
b 157 189 580 585 873 876
b 158 560 574 580 845 868 873
b 159 278 574 580 868 873
b 160 560 571 574 845 867 868
b 161 560 568 571 845 861 867
b 162 358 568 571 861 867
b 163 560 565 568 845 857 861
b 164 176 565 568 857 861
b 165 560 563 565 845 850 857
b 166 344 563 565 850 857
b 167 25 560 563 845 850
b 168 371 571 574 867 868
b 169 585 603 607 608 876 878
b 170 264 585 607 608 878
b 171 603 605 607 876 877 878
b 172 338 605 607 877 878
b 173 164 603 605 876 877
b 174 162 558 560 839 840 845
b 175 162 558 559 560 839 840
b 176 215 558 559 839 840
b 177 6 437 439 691 694
b 178 45 434 436 685 689
b 179 274 430 434 678 685
b 180 27 429 430 675 678
b 181 67 166 480 491 613 617 758 774
b 182 166 456 480 491 608 613 617 718 758 774
b 183 166 402 439 456 491 608 617 700 718 774
b 184 166 402 439 491 608 617 694 700 718 774
b 185 163 166 402 439 491 608 617 621 694 774
b 186 163 166 439 491 496 608 621 694 774 778
b 187 163 166 319 439 496 558 608 694 778 839
b 188 163 166 319 496 549 558 778 829 839
b 189 163 166 549 552 558 829 832 839
b 190 166 549 551 552 829 830 832
b 191 166 549 551 830 831 832
b 192 166 549 550 551 831 832
b 193 394 549 550 831 832
b 194 291 551 552 829 830
b 195 163 552 558 832 836 839
b 196 163 552 556 558 832 836
b 197 552 555 556 832 834 836
b 198 352 555 556 834 836
b 199 116 552 555 832 834
b 200 319 496 536 549 778 817 829
b 201 319 496 536 778 814 817
b 202 319 496 529 536 778 814
b 203 496 528 529 778 810 814
b 204 496 521 528 778 804 810
b 205 521 522 528 804 805 810
b 206 212 522 528 804 805
b 207 223 521 522 805 810
b 208 496 518 521 778 802 804
b 209 496 517 518 778 801 802
b 210 32 517 518 801 802
b 211 496 515 517 778 796 801
b 212 496 513 515 778 794 796
b 213 496 508 513 778 790 794
b 214 496 503 508 778 786 790
b 215 248 503 508 786 790
b 216 496 502 503 778 784 786
b 217 496 499 502 778 782 784
b 218 268 496 499 778 782
b 219 370 499 502 782 784
b 220 243 502 503 784 786
b 221 508 509 513 790 792 794
b 222 509 510 513 790 791 792
b 223 299 509 510 790 791
b 224 297 510 513 791 792
b 225 139 508 509 792 794
b 226 202 513 515 794 796
b 227 230 515 517 796 801
b 228 279 518 521 802 804
b 229 271 528 529 810 814
b 230 536 543 549 817 826 829
b 231 536 541 543 817 825 826
b 232 359 541 543 825 826
b 233 536 540 541 817 823 825
b 234 126 540 541 823 825
b 235 536 539 540 817 822 823
b 236 536 538 539 817 819 822
b 237 239 538 539 819 822
b 238 148 536 538 817 819
b 239 129 539 540 822 823
b 240 368 543 549 826 829
b 241 402 439 444 456 700 718
b 242 444 454 456 700 715 718
b 243 444 452 454 700 710 715
b 244 216 452 454 710 715
b 245 444 445 452 700 702 710
b 246 304 444 445 700 702
b 247 58 445 452 702 710
b 248 265 454 456 715 718
b 249 456 462 480 608 610 613 718 729 758
b 250 456 462 610 612 613 718 727 729
b 251 456 462 610 612 718 720 727
b 252 456 458 462 720 723 727
b 253 328 458 462 723 727
b 254 225 456 458 720 723
b 255 266 610 612 718 720
b 256 46 612 613 727 729
b 257 462 480 608 610 729 750 758
b 258 175 608 610 750 758
b 259 462 477 480 729 749 750
b 260 462 470 477 729 747 749
b 261 462 469 470 729 740 747
b 262 195 469 470 740 747
b 263 462 468 469 729 739 740
b 264 350 468 469 739 740
b 265 462 467 468 729 734 739
b 266 289 467 468 734 739
b 267 462 464 467 729 732 734
b 268 390 462 464 729 732
b 269 112 464 467 732 734
b 270 293 470 477 747 749
b 271 88 477 480 749 750
b 272 67 480 488 491 758 771 774
b 273 488 489 491 771 773 774
b 274 74 488 489 771 773
b 275 369 489 491 773 774
b 276 67 480 488 758 765 771
b 277 67 480 486 488 758 765
b 278 480 485 486 758 762 765
b 279 380 480 485 758 762
b 280 270 485 486 762 765
b 281 1 165 491 496 621 774 778
b 282 1 165 774 776 778
b 283 1 165 491 493 496
b 284 67 166 613 615 617
b 285 163 402 617 619 621
b 286 172 875 876
b 287 874 875 876
b 288 106 874 875
b 289 121 872 873
b 290 869 872 873
b 291 383 871 872
b 292 869 871 872
b 293 372 870 871
b 294 869 870 871
b 295 18 869 870
b 296 395 866 867
b 297 862 866 867
b 298 63 865 866
b 299 862 865 866
b 300 194 864 865
b 301 862 864 865
b 302 298 863 864
b 303 862 863 864
b 304 251 862 863
b 305 10 860 861
b 306 858 860 861
b 307 208 859 860
b 308 858 859 860
b 309 329 858 859
b 310 37 856 857
b 311 851 856 857
b 312 49 855 856
b 313 851 855 856
b 314 258 854 855
b 315 851 854 855
b 316 188 853 854
b 317 851 853 854
b 318 131 852 853
b 319 851 852 853
b 320 28 851 852
b 321 35 849 850
b 322 846 849 850
b 323 117 848 849
b 324 846 848 849
b 325 314 847 848
b 326 846 847 848
b 327 109 846 847
b 328 346 844 845
b 329 841 844 845
b 330 185 843 844
b 331 841 843 844
b 332 65 842 843
b 333 841 842 843
b 334 103 841 842
b 335 401 838 839
b 336 837 838 839
b 337 267 837 838
b 338 335 835 836
b 339 398 833 834
b 340 285 828 829
b 341 827 828 829
b 342 327 827 828
b 343 354 824 825
b 344 29 821 822
b 345 820 821 822
b 346 161 820 821
b 347 78 818 819
b 348 321 816 817
b 349 815 816 817
b 350 21 815 816
b 351 343 813 814
b 352 811 813 814
b 353 252 812 813
b 354 811 812 813
b 355 340 811 812
b 356 292 809 810
b 357 806 809 810
b 358 118 808 809
b 359 806 808 809
b 360 284 807 808
b 361 806 807 808
b 362 167 806 807
b 363 403 803 804
b 364 261 800 801
b 365 797 800 801
b 366 85 799 800
b 367 797 799 800
b 368 59 798 799
b 369 797 798 799
b 370 51 797 798
b 371 105 795 796
b 372 69 793 794
b 373 66 789 790
b 374 787 789 790
b 375 8 788 789
b 376 787 788 789
b 377 205 787 788
b 378 389 785 786
b 379 39 783 784
b 380 152 781 782
b 381 779 781 782
b 382 404 780 781
b 383 779 780 781
b 384 245 779 780
b 385 277 777 778
b 386 357 775 776
b 387 300 772 773
b 388 53 770 771
b 389 766 770 771
b 390 11 769 770
b 391 766 769 770
b 392 191 768 769
b 393 766 768 769
b 394 55 767 768
b 395 766 767 768
b 396 305 766 767
b 397 92 764 765
b 398 763 764 765
b 399 95 763 764
b 400 130 761 762
b 401 759 761 762
b 402 256 760 761
b 403 759 760 761
b 404 4 759 760
b 405 316 757 758
b 406 751 757 758
b 407 34 756 757
b 408 751 756 757
b 409 140 755 756
b 410 751 755 756
b 411 30 754 755
b 412 751 754 755
b 413 77 753 754
b 414 751 753 754
b 415 137 752 753
b 416 751 752 753
b 417 7 751 752
b 418 151 748 749
b 419 72 746 747
b 420 741 746 747
b 421 47 745 746
b 422 741 745 746
b 423 366 744 745
b 424 741 744 745
b 425 330 743 744
b 426 741 743 744
b 427 325 742 743
b 428 741 742 743
b 429 198 741 742
b 430 308 738 739
b 431 735 738 739
b 432 5 737 738
b 433 735 737 738
b 434 237 736 737
b 435 735 736 737
b 436 52 735 736
b 437 210 733 734
b 438 388 731 732
b 439 730 731 732
b 440 232 730 731
b 441 114 728 729
b 442 309 726 727
b 443 724 726 727
b 444 209 725 726
b 445 724 725 726
b 446 288 724 725
b 447 193 722 723
b 448 721 722 723
b 449 177 721 722
b 450 150 719 720
b 451 246 717 718
b 452 716 717 718
b 453 42 716 717
b 454 303 714 715
b 455 711 714 715
b 456 386 713 714
b 457 711 713 714
b 458 61 712 713
b 459 711 712 713
b 460 98 711 712
b 461 287 709 710
b 462 703 709 710
b 463 160 708 709
b 464 703 708 709
b 465 62 707 708
b 466 703 707 708
b 467 87 706 707
b 468 703 706 707
b 469 144 705 706
b 470 703 705 706
b 471 192 704 705
b 472 703 704 705
b 473 214 703 704
b 474 396 701 702
b 475 207 699 700
b 476 695 699 700
b 477 173 698 699
b 478 695 698 699
b 479 236 697 698
b 480 695 697 698
b 481 339 696 697
b 482 695 696 697
b 483 317 695 696
b 484 262 693 694
b 485 692 693 694
b 486 15 692 693
b 487 345 690 691
b 488 221 688 689
b 489 686 688 689
b 490 84 687 688
b 491 686 687 688
b 492 174 686 687
b 493 136 684 685
b 494 679 684 685
b 495 115 683 684
b 496 679 683 684
b 497 313 682 683
b 498 679 682 683
b 499 20 681 682
b 500 679 681 682
b 501 149 680 681
b 502 679 680 681
b 503 269 679 680
b 504 156 677 678
b 505 676 677 678
b 506 13 676 677
b 507 290 674 675
b 508 135 672 673
b 509 184 670 671
b 510 669 670 671
b 511 381 669 670
b 512 382 667 668
b 513 100 665 666
b 514 656 665 666
b 515 365 664 665
b 516 656 664 665
b 517 233 663 664
b 518 656 663 664
b 519 145 662 663
b 520 656 662 663
b 521 3 661 662
b 522 656 661 662
b 523 64 660 661
b 524 656 660 661
b 525 122 659 660
b 526 656 659 660
b 527 373 658 659
b 528 656 658 659
b 529 302 657 658
b 530 656 657 658
b 531 31 656 657
b 532 50 654 655
b 533 653 654 655
b 534 93 653 654
b 535 108 651 652
b 536 393 649 650
b 537 644 649 650
b 538 196 648 649
b 539 644 648 649
b 540 312 647 648
b 541 644 647 648
b 542 333 646 647
b 543 644 646 647
b 544 324 645 646
b 545 644 645 646
b 546 76 644 645
b 547 259 642 643
b 548 641 642 643
b 549 234 641 642
b 550 2 639 640
b 551 625 639 640
b 552 190 638 639
b 553 625 638 639
b 554 57 637 638
b 555 625 637 638
b 556 238 636 637
b 557 625 636 637
b 558 70 635 636
b 559 625 635 636
b 560 282 634 635
b 561 625 634 635
b 562 104 633 634
b 563 625 633 634
b 564 272 632 633
b 565 625 632 633
b 566 376 631 632
b 567 625 631 632
b 568 385 630 631
b 569 625 630 631
b 570 132 629 630
b 571 625 629 630
b 572 80 628 629
b 573 625 628 629
b 574 169 627 628
b 575 625 627 628
b 576 361 626 627
b 577 625 626 627
b 578 40 625 626
b 579 341 620 621
b 580 295 618 619
b 581 178 616 617
b 582 240 614 615
b 583 356 611 612
b 584 73 609 610
b 585 227 604 605
b 586 250 602 603
b 587 242 600 601
b 588 387 598 599
b 589 213 597 624
b 590 9 879 880
b 591 586 879 880
b 592 43 889 890
b 593 591 889 890
b 594 134 893 894
b 595 591 893 894
b 596 294 306 595 894
b 597 591 595 894
b 598 310 892 893
b 599 591 892 893
b 600 323 891 892
b 601 591 891 892
b 602 375 890 891
b 603 591 890 891
b 604 171 888 889
b 605 591 888 889
b 606 276 887 888
b 607 591 887 888
b 608 71 590 591 886
b 609 71 591 886 887
b 610 110 594 595
b 611 591 594 595
b 612 142 593 594
b 613 591 593 594
b 614 353 592 593
b 615 591 592 593
b 616 180 591 592
b 617 589 590 886
b 618 127 885 886
b 619 589 885 886
b 620 280 884 885
b 621 589 884 885
b 622 399 588 589 883
b 623 399 589 883 884
b 624 81 589 590
b 625 586 588 883
b 626 231 882 883
b 627 586 882 883
b 628 348 881 882
b 629 586 881 882
b 630 384 880 881
b 631 586 880 881
b 632 128 878 879
b 633 586 878 879
b 634 146 587 588
b 635 586 587 588
b 636 374 586 587
b 637 222 584 585
b 638 581 584 585
b 639 170 583 584
b 640 581 583 584
b 641 60 582 583
b 642 581 582 583
b 643 204 581 582
b 644 44 579 580
b 645 575 579 580
b 646 296 578 579
b 647 575 578 579
b 648 342 577 578
b 649 575 577 578
b 650 363 576 577
b 651 575 576 577
b 652 332 575 576
b 653 217 573 574
b 654 572 573 574
b 655 362 572 573
b 656 349 570 571
b 657 569 570 571
b 658 123 569 570
b 659 336 567 568
b 660 566 567 568
b 661 153 566 567
b 662 157 564 565
b 663 141 562 563
b 664 561 562 563
b 665 89 561 562
b 666 337 557 558
b 667 281 554 555
b 668 553 554 555
b 669 68 553 554
b 670 138 548 549
b 671 544 548 549
b 672 120 547 548
b 673 544 547 548
b 674 318 546 547
b 675 544 546 547
b 676 168 545 546
b 677 544 545 546
b 678 82 544 545
b 679 224 542 543
b 680 119 537 538
b 681 22 535 536
b 682 530 535 536
b 683 206 534 535
b 684 530 534 535
b 685 101 533 534
b 686 530 533 534
b 687 99 532 533
b 688 530 532 533
b 689 378 531 532
b 690 530 531 532
b 691 331 530 531
b 692 36 527 528
b 693 523 527 528
b 694 96 526 527
b 695 523 526 527
b 696 12 525 526
b 697 523 525 526
b 698 273 524 525
b 699 523 524 525
b 700 91 523 524
b 701 113 520 521
b 702 519 520 521
b 703 143 519 520
b 704 154 516 517
b 705 186 514 515
b 706 322 512 513
b 707 511 512 513
b 708 360 511 512
b 709 19 507 508
b 710 504 507 508
b 711 247 506 507
b 712 504 506 507
b 713 107 505 506
b 714 504 505 506
b 715 94 504 505
b 716 187 501 502
b 717 500 501 502
b 718 181 500 501
b 719 159 498 499
b 720 497 498 499
b 721 315 497 498
b 722 199 495 496
b 723 494 495 496
b 724 203 494 495
b 725 90 492 493
b 726 263 490 491
b 727 102 487 488
b 728 364 484 485
b 729 481 484 485
b 730 17 483 484
b 731 481 483 484
b 732 79 482 483
b 733 481 482 483
b 734 311 481 482
b 735 48 479 480
b 736 478 479 480
b 737 347 478 479
b 738 16 476 477
b 739 471 476 477
b 740 379 475 476
b 741 471 475 476
b 742 241 474 475
b 743 471 474 475
b 744 253 473 474
b 745 471 473 474
b 746 147 472 473
b 747 471 472 473
b 748 228 471 472
b 749 355 466 467
b 750 465 466 467
b 751 26 465 466
b 752 183 463 464
b 753 254 461 462
b 754 459 461 462
b 755 56 460 461
b 756 459 460 461
b 757 200 459 460
b 758 155 457 458
b 759 286 455 456
b 760 219 453 454
b 761 235 451 452
b 762 446 451 452
b 763 197 450 451
b 764 446 450 451
b 765 124 449 450
b 766 446 449 450
b 767 391 448 449
b 768 446 448 449
b 769 283 447 448
b 770 446 447 448
b 771 351 446 447
b 772 179 443 444
b 773 440 443 444
b 774 334 442 443
b 775 440 442 443
b 776 201 441 442
b 777 440 441 442
b 778 229 440 441
b 779 301 438 439
b 780 54 435 436
b 781 158 433 434
b 782 431 433 434
b 783 275 432 433
b 784 431 432 433
b 785 226 431 432
b 786 260 428 429
b 787 255 424 425
b 788 423 424 425
b 789 249 423 424
b 790 182 421 422
b 791 211 419 420
b 792 307 415 416
b 793 414 415 416
b 794 24 414 415
b 795 326 338 405
b 796 213 623 624
b 797 377 623 624
b 798 213 622 623
b 799 213 596 597
b 800 14 412 413
b 801 97 412 413
b 802 86 411 412
b 803 97 411 412
b 804 41 410 411
b 805 97 410 411
b 806 97 409 410
b 807 244 409 410
b 808 97 408 409
b 809 257 408 409
b 810 97 407 408
1 795
2 3
3 810
4 798
5 799
6 801
6 65
7 795
7 58
8 793
8 126
9 791
9 133
10 790
10 135
11 788
11 137
12 786
12 142
13 782
13 179
14 780
14 178
15 779
15 177
16 773
16 241
17 762
17 247
18 760
18 244
19 759
19 248
20 758
20 254
21 754
21 253
22 752
22 268
23 750
23 269
24 739
24 270
25 736
25 271
26 729
26 279
27 727
27 277
28 726
28 275
29 725
29 283
30 723
30 283
31 720
31 218
32 717
32 219
33 710
33 215
34 707
34 224
35 705
35 226
36 704
36 227
37 702
37 228
38 693
38 206
39 682
39 202
40 680
40 238
41 679
41 232
42 671
42 240
43 668
43 199
44 666
44 196
45 664
45 167
46 662
46 166
47 660
47 164
48 657
48 162
49 654
49 168
50 645
50 159
51 638
51 157
52 633
52 170
53 589
53 54
54 588
54 152
55 587
55 152
56 586
56 150
57 585
57 173
58 172
59 584
59 258
60 583
60 255
61 582
61 284
62 581
62 284
63 580
63 285
64 579
64 285
65 551
65 127
66 548
66 126
67 537
67 129
68 535
68 131
69 533
69 133
70 514
70 135
71 512
71 137
72 510
72 139
73 508
73 141
74 507
74 143
75 505
75 180
76 494
76 179
77 489
77 178
78 487
78 148
79 485
79 177
80 476
80 184
81 474
81 246
82 462
82 247
83 455
83 244
84 452
84 248
85 450
85 255
86 448
86 254
87 443
87 253
88 441
88 256
89 439
89 268
90 437
90 269
91 431
91 266
92 420
92 262
93 418
93 270
94 406
94 258
95 401
95 279
96 398
96 280
97 389
97 276
98 387
98 274
99 386
99 282
100 385
100 282
101 381
101 218
102 379
102 219
103 378
103 220
104 374
104 215
105 372
105 225
106 371
106 226
107 365
107 227
108 363
108 228
109 357
109 207
110 352
110 229
111 349
111 201
112 347
112 238
113 345
113 237
114 343
114 234
115 341
115 240
116 339
116 199
117 338
117 198
118 336
118 195
119 329
119 174
120 322
120 167
121 311
121 166
122 306
122 164
123 297
123 162
124 290
124 159
125 287
125 157
126 127
127 128
128 130
128 129
130 132
130 131
132 134
132 133
134 136
134 135
136 138
136 137
138 140
138 139
140 142
140 141
142 143
143 144
144 180
144 145
145 179
145 146
146 178
146 147
147 149
147 148
149 177
149 150
150 151
151 153
151 152
153 187
153 154
154 155
154 174
155 156
155 169
156 158
156 157
158 159
158 160
160 168
160 161
161 162
161 163
163 164
163 165
165 167
165 166
169 170
169 171
171 173
171 172
174 175
175 176
181 272
181 284
181 182
182 249
182 183
183 241
183 184
184 185
185 285
185 186
186 281
186 187
187 188
188 200
188 189
189 195
189 190
190 191
190 194
191 192
192 193
195 196
196 197
197 198
197 199
200 230
200 201
201 202
202 203
203 204
203 229
204 205
204 208
205 206
205 207
208 228
208 209
209 210
209 211
211 227
211 212
212 226
212 213
213 221
213 214
214 215
214 216
216 220
216 217
217 219
217 218
221 225
221 222
222 224
222 223
230 240
230 231
231 232
231 233
233 234
233 235
235 236
235 239
236 237
236 238
241 242
242 248
242 243
243 244
243 245
245 247
245 246
249 257
249 250
250 251
250 256
251 255
251 252
252 253
252 254
257 258
257 259
259 271
259 260
260 270
260 261
261 262
261 263
263 264
263 265
265 266
265 267
267 269
267 268
272 273
272 276
273 275
273 274
276 277
277 278
278 280
278 279
281 282
281 283
286 287
287 288
289 290
290 292
291 292
292 294
293 294
294 295
296 297
297 299
298 299
299 301
300 301
301 303
302 303
303 304
305 306
306 308
307 308
308 309
310 311
311 313
312 313
313 315
314 315
315 317
316 317
317 319
318 319
319 320
321 322
322 324
323 324
324 326
325 326
326 327
328 329
329 331
330 331
331 333
332 333
333 334
335 336
336 337
340 341
341 342
344 345
345 346
348 349
349 350
351 352
352 354
353 354
354 355
356 357
357 359
358 359
359 361
360 361
361 362
364 365
365 367
366 367
367 369
368 369
369 370
373 374
374 376
375 376
376 377
380 381
381 383
382 383
383 384
388 389
389 391
390 391
391 393
392 393
393 395
394 395
395 396
397 398
398 399
400 401
401 403
402 403
403 404
405 406
406 408
407 408
408 410
409 410
410 412
411 412
412 414
413 414
414 416
415 416
416 417
419 420
420 422
421 422
422 424
423 424
424 426
425 426
426 428
427 428
428 429
430 431
431 433
432 433
433 435
434 435
435 436
438 439
439 440
442 443
443 445
444 445
445 446
447 448
448 449
451 452
452 453
454 455
455 457
456 457
457 459
458 459
459 460
461 462
462 464
463 464
464 466
465 466
466 468
467 468
468 470
469 470
470 472
471 472
472 473
475 476
476 478
477 478
478 480
479 480
480 482
481 482
482 483
484 485
485 486
488 489
489 491
490 491
491 492
493 494
494 496
495 496
496 498
497 498
498 500
499 500
500 502
501 502
502 503
504 505
505 506
509 510
510 511
513 514
514 516
515 516
516 518
517 518
518 520
519 520
520 522
521 522
522 524
523 524
524 526
525 526
526 528
527 528
528 530
529 530
530 531
532 533
533 534
536 537
537 539
538 539
539 541
540 541
541 543
542 543
543 545
544 545
545 546
547 548
548 549
550 551
551 553
552 553
553 555
554 555
555 557
556 557
557 559
558 559
559 561
560 561
561 563
562 563
563 565
564 565
565 567
566 567
567 569
568 569
569 571
570 571
571 573
572 573
573 575
574 575
575 577
576 577
577 578
589 799
589 796
590 591
591 633
591 631
592 593
593 605
593 603
594 595
595 599
595 597
596 597
597 611
598 599
599 601
600 601
601 603
602 603
604 605
605 607
606 607
607 609
608 617
608 609
610 611
611 613
612 613
613 615
614 615
615 616
617 624
617 619
618 619
619 621
620 621
621 623
622 625
622 623
625 635
625 627
626 627
627 629
628 629
629 631
630 631
632 633
634 635
635 636
637 638
638 640
639 640
640 642
641 642
642 643
644 645
645 647
646 647
647 649
648 649
649 651
650 651
651 652
653 654
654 655
656 657
657 658
659 660
660 661
663 664
664 665
667 668
668 669
670 671
671 673
672 673
673 675
674 675
675 677
676 677
677 678
681 682
682 684
683 684
684 686
685 686
686 688
687 688
688 690
689 690
690 691
692 693
693 695
694 695
695 697
696 697
697 699
698 699
699 700
701 702
702 703
706 707
707 708
709 710
710 712
711 712
712 714
713 714
714 715
716 717
717 718
719 720
720 721
722 723
723 724
728 729
729 731
730 731
731 733
732 733
733 734
735 736
736 737
738 739
739 741
740 741
741 743
742 743
743 745
744 745
745 747
746 747
747 748
749 750
750 751
753 754
754 756
755 756
756 757
761 762
762 764
763 764
764 766
765 766
766 768
767 768
768 770
769 770
770 771
772 773
773 775
774 775
775 777
776 777
777 778
781 782
782 784
783 784
784 785
787 788
788 789
792 793
793 794
796 798
796 797
800 801
801 803
802 803
803 805
804 805
805 806
806 808
806 807
808 810
808 809
